p cnf 11 24
-11 -10 -3 0
-11 8 2 0
-11 -7 -3 0
-11 -2 1 0
10 9 7 0
10 9 -3 0
-10 -8 -3 0
10 6 -2 0
10 -5 2 0
-10 5 -2 0
-10 -5 1 0
10 -4 -3 0
-9 7 2 0
-9 -5 -3 0
-9 -5 1 0
9 3 1 0
8 7 2 0
8 -6 -2 0
8 4 -3 0
-8 3 -1 0
-6 5 1 0
6 -2 -1 0
5 3 -1 0
5 -2 1 0
